
50
40844

3360 1566
2240 1044
11640 3770
6984 2262
3920 1827
1164 377
3360 1566
4480 2088
2328 754
6984 2262
1680 783
8148 2639
2800 1305
4480 2088
2240 1044
9312 3016
2328 754
1680 783
560 261
1120 522
5820 1885
11640 3770
11640 3770
1680 783
1120 522
4480 2088
560 261
3492 1131
5040 2349
2328 754
9312 3016
4480 2088
5600 2610
5600 2610
6984 2262
1120 522
5820 1885
3492 1131
3360 1566
4656 1508
3360 1566
3360 1566
1120 522
6984 2262
1120 522
10476 3393
3920 1827
1680 783
2328 754
4480 2088
